(set-info :smt-lib-version 2.6)
(set-logic QF_S)
(set-info :source |
Generated by: Murphy Berzish, Mitja Kulczynski, Federico Mora, Florin Manea, Joel Day, Dirk Nowotka, Vijay Ganesh, Zhengyang Lu
Generated on: 2020-10-01
Description: Translated from a collection of real-world regex queries, AutomataArk, collected by Loris D’Antoni and Fang Wang: https://github.com/lorisdanto/automatark
Application: Evaluate solvers on real-world regex queries
Target solver: Z3str3RE, CVC4, OSTRICH, Z3seq, Z3str3, Z3-Trau
Publications: Berzish, M., Kulczynski, M., Mora, F., Manea, F., Day, J. D., Nowotka, D., & Ganesh, V. (2021, July). An SMT solver for regular expressions and linear arithmetic over string length. In CAV 2021.
|)
(set-info :license "https://creativecommons.org/licenses/by/4.0/")
(set-info :category "industrial")
(set-info :status unsat)

(declare-const X String)
(assert (str.in_re X (re.++ (str.to_re "\u{a}$") (re.* (re.union (str.to_re " ") (str.to_re "\u{9}") (str.to_re "\u{a}") (str.to_re "\u{c}") (str.to_re "\u{d}"))) (re.+ (re.union (re.range "0" "9") (str.to_re ","))) (str.to_re ".") ((_ re.loop 2 2) (re.range "0" "9")))))
(assert (str.in_re X (re.++ (str.to_re "/filename=") (re.* (re.comp (str.to_re "\u{a}"))) (str.to_re ".f4b/i\u{a}"))))
(assert (str.in_re X (re.union (re.++ ((_ re.loop 1 1) (re.union (re.++ (str.to_re "H") (re.union (str.to_re "P") (str.to_re "T") (str.to_re "U") (str.to_re "Y") (str.to_re "Z"))) (re.++ (str.to_re "N") (re.union (str.to_re "A") (str.to_re "B") (str.to_re "C") (str.to_re "D") (str.to_re "F") (str.to_re "G") (str.to_re "H") (str.to_re "J") (str.to_re "K") (str.to_re "L") (str.to_re "M") (str.to_re "N") (str.to_re "O") (str.to_re "R") (str.to_re "S") (str.to_re "T") (str.to_re "U") (str.to_re "W") (str.to_re "X") (str.to_re "Y") (str.to_re "Z"))) (str.to_re "OV") (re.++ (str.to_re "S") (re.union (str.to_re "C") (str.to_re "D") (str.to_re "E") (str.to_re "G") (str.to_re "H") (str.to_re "J") (str.to_re "K") (str.to_re "M") (str.to_re "N") (str.to_re "O") (str.to_re "P") (str.to_re "R") (str.to_re "S") (str.to_re "T") (str.to_re "U") (str.to_re "W") (str.to_re "X") (str.to_re "Y") (str.to_re "Z"))) (re.++ (str.to_re "T") (re.union (str.to_re "A") (str.to_re "F") (str.to_re "G") (str.to_re "L") (str.to_re "M") (str.to_re "Q") (str.to_re "R") (str.to_re "V"))))) ((_ re.loop 4 4) (re.range "0" "9")) (re.opt (re.union (str.to_re "NE") (str.to_re "NW") (str.to_re "SE") (str.to_re "SW")))) (re.++ (str.to_re "\u{a}") ((_ re.loop 1 1) (re.union (re.++ (str.to_re "H") (re.union (str.to_re "P") (str.to_re "T") (str.to_re "U") (str.to_re "Y") (str.to_re "Z"))) (re.++ (str.to_re "N") (re.union (str.to_re "A") (str.to_re "B") (str.to_re "C") (str.to_re "D") (str.to_re "F") (str.to_re "G") (str.to_re "H") (str.to_re "J") (str.to_re "K") (str.to_re "L") (str.to_re "M") (str.to_re "N") (str.to_re "O") (str.to_re "R") (str.to_re "S") (str.to_re "T") (str.to_re "U") (str.to_re "W") (str.to_re "X") (str.to_re "Y") (str.to_re "Z"))) (str.to_re "OV") (re.++ (str.to_re "S") (re.union (str.to_re "C") (str.to_re "D") (str.to_re "E") (str.to_re "G") (str.to_re "H") (str.to_re "J") (str.to_re "K") (str.to_re "M") (str.to_re "N") (str.to_re "O") (str.to_re "P") (str.to_re "R") (str.to_re "S") (str.to_re "T") (str.to_re "U") (str.to_re "W") (str.to_re "X") (str.to_re "Y") (str.to_re "Z"))) (re.++ (str.to_re "T") (re.union (str.to_re "A") (str.to_re "F") (str.to_re "G") (str.to_re "L") (str.to_re "M") (str.to_re "Q") (str.to_re "R") (str.to_re "V"))))) (re.union ((_ re.loop 4 4) (re.range "0" "9")) ((_ re.loop 6 6) (re.range "0" "9")) ((_ re.loop 8 8) (re.range "0" "9")) ((_ re.loop 10 10) (re.range "0" "9")))))))
(assert (not (str.in_re X (re.++ (str.to_re "\u{a}") ((_ re.loop 1 1) (re.union (re.range "a" "h") (re.range "A" "H"))) ((_ re.loop 1 1) (re.range "1" "8"))))))
(check-sat)

(exit)
